
$ Database file written 2012-11- 9
$ From database: SSOL2                   
 ELEMENT /-   ELECTRON_GAS              0.0000E+00  0.0000E+00  0.0000E+00!
 ELEMENT VA   VACUUM                    0.0000E+00  0.0000E+00  0.0000E+00!
 ELEMENT CU   FCC_A1                    6.3546E+01  5.0041E+03  3.3150E+01!
 ELEMENT P    WHITE                     3.0974E+01  0.0000E+00  0.0000E+00!
 ELEMENT H    1/2_MOLE_H2(G)            1.0079E+00  4.2340E+03  6.5285E+01!
 ELEMENT O    1/2_MOLE_O2(G)            1.5999E+01  4.3410E+03  1.0252E+02!
 ELEMENT S    FC_ORTHORHOMBIC           3.2066E+01  0.0000E+00  0.0000E+00!


 SPECIES CU1H1                       CU1H1!
 SPECIES CU2O                        CU2O1!
 SPECIES CU1O1                       CU1O1!
 SPECIES CU1S2                       CU1S2!
 SPECIES CU2S1                       CU2S1!


 SPECIES H1O1                        H1O1!
 SPECIES H1O2                        H1O2!
 SPECIES H2O1                        H2O1!
 SPECIES H2O2                        H2O2!
 SPECIES O2                          O2!
 SPECIES O3                          O3!
 SPECIES P1O1                        P1O1!
 SPECIES S1O1                        S1O1!
 SPECIES S2O1                        S2O1!
 SPECIES P1O2                        P1O2!
 SPECIES S1O2                        S1O2!
 SPECIES S1O3                        S1O3!
 SPECIES P4O6                        P4O6!
 SPECIES P4O10                       P4O10!
 SPECIES H2                          H2!
 SPECIES H2S1O4                      H2S1O4!
 SPECIES S1H1                        S1H1!
 SPECIES P1H1                        P1H1!
 SPECIES P1H2                        P1H2!
 SPECIES P1H3                        P1H3!
 SPECIES H2S1                        H2S1!
 SPECIES P2                          P2!
 SPECIES P4                          P4!
 SPECIES P1S1                        P1S1!
 SPECIES P4S3                        P4S3!
 SPECIES S2                          S2!
 SPECIES S3                          S3!
 SPECIES S4                          S4!
 SPECIES S5                          S5!
 SPECIES S6                          S6!
 SPECIES S7                          S7!
 SPECIES S8                          S8!
 SPECIES CU1                         CU1!
 SPECIES CU2                         CU2!



 FUNCT GHSERCU  298.15 -7770.458+130.485235*T-24.112392*T*LN(T)
    -2.65684E-3*T**2+0.129223E-6*T**3+52478*T**(-1);  1357.77 Y
     -13542.026+183.803828*T-31.38*T*LN(T)+364.167E27*T**(-9); 3200 N !
  FUNCT GLIQCU 298.15 
    +GHSERCU#+12964.735-9.511904*T-584.89E-23*T**7; 1357.77 Y
    -46.545+173.881484*T-31.38*T*LN(T); 3200 N !
 FUNCT GLIQOO 298.15 +GHSEROO#-2648.9+31.44*T; 6000 N !
 FUNCTION GPPLIQ     2.50000E+02  -26316.111+434.943931*T-70.7440584*T*LN(T)
     -.002898936*T**2+3.9049341E-05*T**3+1141147*T**(-1);  3.17300E+02  Y
      -7232.449+133.304873*T-26.326*T*LN(T);  3.00000E+03  N !
 FUNCTION GCUBCC     2.98150E+02  +4017-1.255*T+GHSERCU#;   6.00000E+03   N !
 FUNCTION GPPRED     2.50000E+02  -25976.559+148.685002*T-25.55*T*LN(T)
     +.0034121*T**2-2.418867E-06*T**3+160095*T**(-1);  5.00000E+02  Y
      -21723.721+77.684737*T-14.368*T*LN(T)-.00957685*T**2+3.93917E-07*T**3
     -141375*T**(-1);  8.52350E+02  Y
      -119408.413+1026.04262*T-149.449556*T*LN(T)+.067272364*T**2
     -6.651929E-06*T**3+12495943*T**(-1);  1.50000E+03  Y
      -24524.119+153.852181*T-26.326*T*LN(T);  3.00000E+03  N !
 FUNCTION GHSERPP    2.50000E+02  -43821.799+1026.70689*T-178.426*T*LN(T)
     +.290708*T**2-1.04022667E-04*T**3+1632695*T**(-1);  3.17300E+02  Y
      -9587.448+152.354487*T-28.7335301*T*LN(T)+.001715669*T**2
     -2.2829E-07*T**3+172966*T**(-1);  1.00000E+03  Y
      -8093.075+135.889831*T-26.326*T*LN(T);  3.00000E+03  N !
 FUNCT GFCCPP   250.00 +10842.441+135.534002*T-25.55*T*LN(T)
    +3.4121E-3*T**2-2.418867E-6*T**3+160095*T**(-1); 500 Y
     +15095.279+64.533737*T-14.368*T*LN(T)
    -9.57685E-3*T**2+0.393917E-6*T**3-141375*T**(-1); 852.35 Y
     -82589.413+1012.89162*T-149.4495562*T*LN(T)
    +67.272364E-3*T**2-6.651929E-6*T**3+12495943*T**(-1); 1500 Y
     +12294.881+140.701181*T-26.326*T*LN(T);  3000 N !
  FUNCTION F8036T     298.15  +331712.276-25.5445936*T-21.044*T*LN(T)
     +2.776E-04*T**2-4.9305E-08*T**3+5295*T**(-1);  1.60000E+03  Y
      +336105.821-35.5441878*T-20.115*T*LN(T)+.00118285*T**2
     -2.18138333E-07*T**3-1572935*T**(-1);  3.00000E+03  Y
      +390707.537-303.115733*T+14.175*T*LN(T)-.0079804*T**2
     +2.27558333E-07*T**3-16772955*T**(-1);  5.30000E+03  Y
      +110975.664+452.719908*T-75.18201*T*LN(T)+.004605*T**2
     -1.02516667E-07*T**3+1.4589055E+08*T**(-1);  8.40000E+03  Y
      +918206.507-898.443069*T+75.05701*T*LN(T)-.0078504*T**2
     +9.14616667E-08*T**3-6.694665E+08*T**(-1);  1.00000E+04  N !
 FUNCTION F8074T     298.15  +282448.368-41.0385226*T-22.666*T*LN(T)
     -.00821845*T**2+8.24498333E-07*T**3-94230*T**(-1);  1.20000E+03  Y
      +274612.991+36.026839*T-33.715*T*LN(T)-.0013628*T**2+3.3515E-08*T**3
     +934815*T**(-1);  4.70000E+03  Y
      +193168.762+307.016304*T-66.622*T*LN(T)+.0043808*T**2-1.5039E-07*T**3
     +37290055*T**(-1);  6.00000E+03  N !
 FUNCTION F8154T     298.15  +462958.167+11.1478222*T-37.642*T*LN(T)
     -1.1515E-04*T**2-6.7015E-08*T**3+51145*T**(-1);  3.50000E+03  Y
      +692156.122-643.599384*T+40.105*T*LN(T)-.01109485*T**2
     +1.90893333E-07*T**3-1.2151985E+08*T**(-1);  5.50000E+03  Y
      +1198333.43-1966.90368*T+195.893*T*LN(T)-.03229355*T**2
     +7.29055E-07*T**3-4.2822925E+08*T**(-1);  6.00000E+03  N !
 FUNCTION F10447T    298.15  +211801.621+24.4989816*T-20.78611*T*LN(T); 
      6.00000E+03  N !
 FUNCTION GHSERHH    298.15  -9522.97393+78.5273873*T-31.35707*T*LN(T)
     +.0027589925*T**2-7.46390667E-07*T**3+56582.3*T**(-1);  1.00000E+03  Y
      +180.10884-15.6128262*T-17.84857*T*LN(T)-.00584168*T**2
     +3.14618667E-07*T**3-1280036*T**(-1);  2.10000E+03  Y
      -18840.1661+92.3120249*T-32.05082*T*LN(T)-.0010728235*T**2
     +1.14281783E-08*T**3+3561002.5*T**(-1);  6.00000E+03  N !
 FUNCT GHSEROO   298.15 -3480.87-25.503038*T-11.1355*T*LN(T)
    -5.098875E-3*T**2+0.661845833E-6*T**3-38365*T**(-1);  1000 Y
     -6568.763+12.659879*T-16.8138*T*LN(T)
    -0.5957975E-3*T**2+0.006781E-6*T**3+262905*T**(-1);  3300 Y
     -13986.728+31.259624*T-18.9536*T*LN(T)
    -0.425243E-3*T**2+0.010721E-6*T**3+4383200*T**(-1);  6000 N !
  FUNCTION GHSERSS    2.98150E+02  -5228.956+55.417762*T-11.007*T*LN(T)
     -.026529*T**2+7.754333E-06*T**3;  3.68300E+02  Y
      -6513.769+94.692922*T-17.941839*T*LN(T)-.010895125*T**2
     +1.402558E-06*T**3+39910*T**(-1);  1.30000E+03  N !

 FUNCTION GGASS2 298.15 +117374.548+2.98629558*T-34.09678*T*LN(T)
      -.002325464*T**2+1.85480167E-07*T**3+128593.6*T**(-1);  
   1000.00 Y +117352.438+2.50383258*T-34.04744*T*LN(T)
      -.0021150245*T**2+9.16602333E-08*T**3+175718.45*T**(-1);  
   3400.00 Y +124361.091+14.5182895*T-36.1923*T*LN(T)
      -5.930925E-04*T**2-7.54259333E-09*T**3-7484105*T**(-1);  
   6000.00 N !


 FUNCTION GLIQSS     2.98150E+02  -4001.549+77.905686*T-15.504*T*LN(T)
     -.018629*T**2-2.4942E-07*T**3-113945*T**(-1);  3.88360E+02  Y
      -5285183.35+118449.601*T-19762.4*T*LN(T)+32.79275*T**2
     -.0102214167*T**3+2.646735E+08*T**(-1);  4.28150E+02  Y
      -8174995.23+319914.094*T-57607.3*T*LN(T)+135.3045*T**2
     -.0529973333*T**3;  4.32250E+02  Y
      -219408.801+7758.85593*T-1371.85*T*LN(T)+2.845035*T**2
     -.00101380333*T**3;  4.53150E+02  Y
      +92539.872-1336.35027*T+202.958*T*LN(T)-.2531915*T**2+5.18835E-05*T**3
     -8202200*T**(-1);  7.17000E+02  Y
      -6889.972+176.37082*T-32*T*LN(T);  1.30000E+03  N !

 FUNCTION GDIG 298.15 +2*GHSERCU#+GHSERSS#-73851.5-97.82124*T
  +8.1715*T*LN(T);     6000.00 N !

 FUNCTION UN_ASS 298.15 0; 300 N !
 

 TYPE_DEFINITION % SEQ *!
 DEFINE_SYSTEM_DEFAULT ELEMENT 2 !
 DEFAULT_COMMAND DEF_SYS_ELEMENT VA /- !


 PHASE GAS:G %  1  1.0  !
    CONSTITUENT GAS:G :O,P1O1,S1O1,S2O1,P1O2,S1O2,O3,S1O3,P4O6,P4O10,
            H,H1O1,H1O2,P1H1,S1H1,H2O1,H2O2,H2S1O4,P1H2,H2S1,P1H3,
            P,P1S1,P2,P4,P4S3,S,S2,S3,S4,S5,S6,S7,S8,CU,CU1O1,CU2,
            H2,O2:  !


  PARAMETER G(GAS,O;0)     298.15  +243210-20.906*T-21.01*T*LN(T)
    +0.0001282*T**2-43628*T**(-1)-1.3e-008*T**3+RTLNP#;  2000 N REF709 !
  PARAMETER G(GAS,P101;0)  298.15  -31750-21.067*T-30.469*T*LN(T)
    -0.0037776*T**2+42845*T**(-1)+3.48e-007*T**3+RTLNP#;  2000 N REF709 !
  PARAMETER G(GAS,S1O1;0)  298.15  -5574.9-7.7233*T-31.5*T*LN(T)
    -0.002936*T**2+141620*T**(-1)+1.92e-007*T**3+RTLNP#;  2000 N REF709 !
  PARAMETER G(GAS,S2O1;0)  298.15  -83731+72.282*T-49.641*T*LN(T)
    -0.004641*T**2+371580*T**(-1)+4.48e-007*T**3+RTLNP#;  2000 N REF709 !
  PARAMETER G(GAS,P1O2;0)  298.15  -332150+73.795*T-47.672*T*LN(T)
    -0.0057639*T**2+435760*T**(-1)+5.6e-007*T**3+RTLNP#;  2000 N REF709 !
  PARAMETER G(GAS,S1O2;0)  298.15  -312340+42.097*T-42.034*T*LN(T)
    -0.0088393*T**2+331100*T**(-1)+8.09e-007*T**3+RTLNP#;  2000 N REF709 !
  PARAMETER G(GAS,O3;0)    298.15  +125660+70.387*T-44.781*T*LN(T)
    -0.007556*T**2+451110*T**(-1)+7.05e-007*T**3+RTLNP#;  2000 N REF709 !
  PARAMETER G(GAS,S1O3;0)  298.15   -418500+143.51*T-57.497*T*LN(T)
    -0.013519*T**2+663830*T**(-1)+1.28e-006*T**3+RTLNP#;  2000 N REF709 !
  PARAMETER G(GAS,P4O6;0)  298.15   -1.80E6+1019.8*T-197.29*T*LN(T)
    -0.01973*T**2+2920000*T**(-1)+1.93e-006*T**3+RTLNP#;  2000 N REF709 !
  PARAMETER G(GAS,P4O10;0) 298.15   -3050000+1330.7*T-248.61*T*LN(T)
    -0.045238*T**2+3880000*T**(-1)+4.35e-006*T**3+RTLNP#;  2000 N REF709 !
  PARAMETER G(GAS,H;0)     298.15   211800+24.5*T-20.786*T*LN(T)
    +RTLNP#;  2000 N REF709 !
  PARAMETER G(GAS,H1O1;0)  298.15   31754-8.1324*T-26.213*T*LN(T)
    -0.0022189*T**2-116150*T**(-1)+1.32e-008*T**3+RTLNP#;  2000 N REF709 !
  PARAMETER G(GAS,H1O2;0)  298.15   -9331.7-4.9695*T-32.396*T*LN(T)
    -0.0096481*T**2+140590*T**(-1)+6.61e-007*T**3+RTLNP#;  2000 N REF709 !
  PARAMETER G(GAS,P1H1;0)  298.15   226510-32.117*T-24.201*T*LN(T)
    -0.0053804*T**2-86842*T**(-1)+3.5e-007*T**3+RTLNP#;  2000 N REF709 !
  PARAMETER G(GAS,S1H1;0)  298.15   127780-21.497*T-25.99*T*LN(T)
    -0.0039222*T**2-197070*T**(-1)+2.28e-007*T**3+RTLNP#;  2000 N REF709 !
  PARAMETER G(GAS,H2O1;0)  298.15   -249360-13.684*T-25.575*T*LN(T)
    -0.0091336*T**2-130620*T**(-1)+4.53e-007*T**3+RTLNP#;  2000 N REF709 !
  PARAMETER G(GAS,H2O2;0)  298.15   -153080+77.355*T-44.591*T*LN(T)
    -0.012755*T**2+388650*T**(-1)+1.06e-006*T**3+RTLNP#;  2000 N REF709 !
  PARAMETER G(GAS,H2S1O4;0) 298.15  -774280+375.64*T-96.462*T*LN(T)
    -0.025325*T**2+1230000*T**(-1)+2.07e-006*T**3+RTLNP#;  2000 N REF709 !
  PARAMETER G(GAS,P1H2;0)  298.15   99710-28.807*T-26.329*T*LN(T)
    -0.013719*T**2-33435*T**(-1)+1.13e-006*T**3+RTLNP#;  2000 N REF709 !
  PARAMETER G(GAS,H2S1;0)  298.15   -28241-36.017*T-24.343*T*LN(T)
    -0.013605*T**2-101240*T**(-1)+1.01e-006*T**3+RTLNP#;  2000 N REF709 !
  PARAMETER G(GAS,P1H3;0)  298.15   -11689-20.813*T-25.834*T*LN(T)
    -0.025676*T**2+149180*T**(-1)+2.18e-006*T**3+RTLNP#;  2000 N REF709 !
  PARAMETER G(GAS,P;0)     298.15   310030-21.376*T-21.191*T*LN(T)
    +0.0003969*T**2+9912.4*T**(-1)-6.39e-008*T**3+RTLNP#;  2000 N REF709 !
  PARAMETER G(GAS,P1S1;0)  298.15   127140+11.799*T-36.555*T*LN(T)
    -0.00062486*T**2+75435*T**(-1)+4.67e-008*T**3+RTLNP#;  2000 N REF709 !
  PARAMETER G(GAS,P2;0)    298.15   131980+18.406*T-34.902*T*LN(T)
    -0.0015156*T**2+169460*T**(-1)+1.38e-007*T**3+RTLNP#;  2000 N REF709 !
  PARAMETER G(GAS,P4;0)    298.15   30658+264.79*T-80.145*T*LN(T)
    -0.0017088*T**2+625750*T**(-1)+1.7e-007*T**3+RTLNP#;  2000 N REF709 !
  PARAMETER G(GAS,P4S3;0)  298.15   -197230+717.58*T-154.81*T*LN(T)
    +RTLNP#;  2000 N REF709 !
  PARAMETER G(GAS,S;0)     298.15   270280-9.6331*T-23.833*T*LN(T)
    +0.0017526*T**2-38709*T**(-1)-1.87e-007*T**3+RTLNP#;  2000 N REF709 !
  PARAMETER G(GAS,S3;0)    298.15   123030+95.666*T-53.782*T*LN(T)
    -0.0021748*T**2+325130*T**(-1)-1.08e-010*T**3+RTLNP#;  2000 N REF709 !
  PARAMETER G(GAS,S4;0)    298.15   117740+233.06*T-80.031*T*LN(T)
    -0.0015692*T**2+595980*T**(-1)-5.02e-009*T**3+RTLNP#;  2000 N REF709 !
  PARAMETER G(GAS,S5;0)    298.15   72116+416.8*T-106.94*T*LN(T)
    -0.00052863*T**2+788920*T**(-1)-7.49e-011*T**3+RTLNP#;  2000 N REF709 !
  PARAMETER G(GAS,S6;0)    298.15   56312+541.37*T-132.13*T*LN(T)
    -0.00025055*T**2+920510*T**(-1)-5.64e-011*T**3+RTLNP#;  2000 N REF709 !
  PARAMETER G(GAS,S7;0)    298.15   60712+642.09*T-154.97*T*LN(T)
    -0.0012818*T**2+988060*T**(-1)-8.67e-011*T**3+RTLNP#;  2000 N REF709 !
  PARAMETER G(GAS,S8;0)    298.15   36523+782.49*T-179.07*T*LN(T)
    -0.0022001*T**2+1090000*T**(-1)+2.2e-007*T**3 +RTLNP#;  2000 N REF709 !
  PARAMETER G(GAS,CU;0)    298.15   331160-23.076*T-21.424*T*LN(T)
    +0.00062466*T**2+15622*T**(-1)-1e-007*T**3+RTLNP#;  2000 N REF709 !
  PARAMETER G(GAS,CU1O1;0) 298.15   294790+13.284*T-36.85*T*LN(T)
    -0.0005819*T**2+67370*T**(-1)+2.96e-008*T**3+RTLNP#;  2000 N REF709 !
  PARAMETER G(GAS,CU2;0)   298.15   473880+9.2158*T-37.356*T*LN(T)
    -0.00039627*T**2+44871*T**(-1)+3.27e-009*T**3 +RTLNP#;  2000 N REF709 !

   PARAMETER G(GAS,H2;0)  298.15  +GHSERHH#+R#*T*LN(1E-05*P);  
  6.00000E+03  N REF705 !
   PARAMETER G(GAS,O2;0)  298.15 +2*GHSEROO#+RTLNP#; 6000 N REF283  !
   PARAMETER G(GAS,S2;0)  298.15 +GGASS2#+RTLNP#; 6000.00 N REF283 !


 PHASE LIQUID:L %  1  1.0  !
    CONSTITUENT LIQUID:L :CU,H,O,S,P,CU2O,CU2S1 :  !

   PARAMETER G(LIQUID,CU;0)  2.98150E+02  +GLIQCU#;  3.20000E+03  N REF283 !
   PARAMETER G(LIQUID,P;0)  2.50000E+02  +GPPLIQ#;  3.00000E+03  N REF283 !
   PARAMETER G(LIQUID,CU,P;0)  2.98150E+02  -180379+101.068*T;   6.00000E+03   N 
  REF707 !
   PARAMETER G(LIQUID,CU,P;1)  2.98150E+02  39496-91.505*T;   6.00000E+03   N 
  REF707 !
   PARAMETER G(LIQUID,CU,P;3)  2.98150E+02  35583;   6.00000E+03   N REF707 !

   PARAMETER G(LIQUID,CU;0)  2.98150E+02  +GLIQCU#;  3.20000E+03  N REF1 !
   PARAMETER G(LIQUID,H;0)  298.15  +8035+25*T+2*T*LN(T)+.5*GHSERHH#;  
  6.00000E+03  N REF709 !
   PARAMETER G(LIQUID,CU,H;0)  298.15  +45068-11*T;  6.00000E+03  N 
  REF709 !

   PARAMETER G(LIQUID,CU2O;0)  2.98150E+02  +2*GHSERCU#+GHSEROO#-119801
     +90.34*T-6.79*T*LN(T);  3.20000E+03  N REF704 !

   PARAMETER G(LIQUID,S;0)  2.98150E+02  +GLIQSS#;  3.20000E+03  N REF283 !

   PARAMETER G(LIQUID,CU2S1;0)  2.98150E+02  +GDIG# +22136-15.6267*T;
   3.20000E+03  N REF701 !

   PARAMETER G(LIQUID,CU,CU2S1;0) 298.15  +85840-27.6287*T;   6000 N REF701 !
   PARAMETER G(LIQUID,CU,CU2S1;1) 298.15  -12900+8.5262*T;    6000 N REF701 !

   PARAMETER G(LIQUID,CU2S1,S;0)  298.15  +40406.6-17.5576*T; 6000 N REF701 !
   PARAMETER G(LIQUID,CU2S1,S;1)  298.15  -100287+35.0356*T;  6000 N REF701 !

   PARAMETER G(LIQUID,O;0)  2.98150E+02   +GLIQOO#; 3.20000E+03  N REF1 !
   PARAMETER G(LIQUID,Cu,CU2O;0)  2.98150E+02  +63686-19.9*T;
     3.20000E+03  N REF709 !
   PARAMETER G(LIQUID,Cu,CU2O;1)  2.98150E+02  +14100-9.3*T;
     3.20000E+03  N REF709 !

   PARAMETER G(LIQUID,P,S;0)  298.15  +0; 6000 N REF709 !


 PHASE CU3P1  %  2 3   1 !
    CONSTITUENT CU3P1  :CU : P :  !

   PARAMETER G(CU3P1,CU:P;0)  2.98150E+02  -144800+44.42*T+3*GLIQCU#+GPPLIQ#; 
    6.00000E+03   N REF707 !


 TYPE_DEFINITION ' GES A_P_D FCC_A1 MAGNETIC  -3.0    2.80000E-01 !
 PHASE FCC_A1  %'  2 1   1 !
    CONSTITUENT FCC_A1  :CU%,S,P : H,O,VA% :  !

   PARAMETER G(FCC_A1,CU:VA;0)  2.98150E+02  +GHSERCU#;  3.20000E+03  N 
  REF283 !
   PARAMETER G(FCC_A1,P:VA;0)  2.98150E+02  GFCCPP#;   6.00000E+03   N REF1 !
   PARAMETER G(FCC_A1,CU,P:VA;0)  2.98150E+02  -109505+14.434*T;   6.00000E+03   
  N REF707 !

   PARAMETER G(FCC_A1,CU:H;0)  298.15  +60880+36.9*T
  +GHSERCU#+.5*GHSERHH#;  6.00000E+03  N REF709 !
   PARAMETER G(FCC_A1,CU:H,VA;0)  298.15  -5377;  6.00000E+03  N REF709 !

   PARAMETER G(FCC_A1,CU:O;0) 298.15 +GHSERCU#+GHSEROO#-19400+31*T;
    6000 N REF706!

   PARAMETER G(FCC_A1,S:VA;0)  2.98150E+02  +GHSERSS#+105000;  3.20000E+03  N 
  REF283 !
   PARAMETER G(FCC_A1,CU,S:VA;0) 298.15  -102200-26.5*T; 6000  N REF701 !


 PHASE CU2O  %  2 2   1 !
    CONSTITUENT CU2O  :CU : O :  !

   PARAMETER G(CU2O,CU:O;0)  2.98150E+02  -193230+360.057*T-66.26*T*LN(T)
    -0.00796*T**2+374000*T**(-1);     6.00000E+03   N REF703 !


 PHASE CUH_WURTZITE  %  2 1   1 !
    CONSTITUENT CUH_WURTZITE   :CU : H :  !

   PARAMETER G(CUH_WURTZITE ,CU:H;0)  298.15  +36700+47.62*T
  +GHSERCU#+.5*GHSERHH#;  6.00000E+03  N REF709 !

 PHASE CUH_SPHALERITE  %  2 1   1 !
    CONSTITUENT CUH_SPHALERITE  :CU : H :  !

   PARAMETER G(CUH_SPHALERITE,CU:H;0)  298.15  +37950+47.62*T
  +GHSERCU#+.5*GHSERHH#;  6.00000E+03  N REF709 !


 PHASE CUOH  %  3 1 1 1 !
    CONSTITUENT CUOH  :CU : O: H :  !

   PARAMETER G(CUOH,CU:O:H;0)  298.15 -199800+139.53*T
  +GHSERCU#+0.5*GHSEROO#+0.5*GHSERHH#;  6.00000E+03  N REF709 !

  

 PHASE RED_P  %  1  1.0  !
    CONSTITUENT RED_P  :P :  !

   PARAMETER G(RED_P,P;0)  2.50000E+02  +GPPRED#;  3.00000E+03  N REF283 !


 PHASE WHITE_P  %  1  1.0  !
    CONSTITUENT WHITE_P  :P :  !

   PARAMETER G(WHITE_P,P;0)  2.50000E+02  +GHSERPP#;  3.00000E+03  N REF283 !


PHASE FC_ORTHORHOMBIC  %  1  1.0  !
    CONSTITUENT FC_ORTHORHOMBIC  :S :  !
   PARAMETER G(FC_ORTHORHOMBIC,S;0) 298.15 +GHSERSS#;      1300 N REF283 !

PHASE MONOCLINIC  %  1  1.0  !
    CONSTITUENT MONOCLINIC  :S :  !
   PARAMETER G(MONOCLINIC,S;0) 298.15 -5725.422+89.544275*T-17.413*T*LN(T)
    -9.93935E-3*T**2-0.070062E-6*T**3+1250*T**(-1); 388.36 Y
     -7455.008+114.782945*T-21.1531404*T*LN(T)
    -8.566163E-3*T**2+1.112484E-6*T**3+122167*T**(-1); 1300 Y
     -11779.415+186.699065*T-32*T*LN(T); 1301 N REF283 !

PHASE DIGENITE  %  3  2 1 1  !
    CONSTITUENT DIGENITE  :CU,VA: CU,VA :S :  !
   PARAMETER G(DIGENITE,CU:CU:S;0) 298.15 +3*GHSERCU#+GHSERSS#-49.382*T;
    6000 N REF701 !
   PARAMETER G(DIGENITE,VA:CU:S;0) 298.15 +GHSERCU#+GHSERSS#+100000;
    6000 N REF701 !
   PARAMETER G(DIGENITE,CU:VA:S;0) 298.15 +GDIG#;    6000 N REF701 !
   PARAMETER G(DIGENITE,VA:VA:S;0) 298.15 +GHSERSS#+105281;  6000 N REF701 !
   PARAMETER G(DIGENITE,CU,VA:VA:S;0) 298.15 -154893+51.3874*T; 6000 N REF701 !

PHASE aCHALCOCITE  %  2  2 1   !
    CONSTITUENT aCHALCOCITE  :CU:S :  !
   PARAMETER G(aCHALCOCITE,CU:S;0) 298.15 +2*GHSERCU#+GHSERSS#-78474.5-83.8534*T
   +7.2618*T*LN(T);  6000 N REF701 !

PHASE bCHALCOCITE  %  2  2 1   !
    CONSTITUENT bCHALCOCITE  :CU:S :  !
   PARAMETER G(bCHALCOCITE,CU:S;0) 298.15 +2*GHSERCU#+GHSERSS#-79412-56.4306*T
   +3.0602*T*LN(T);  6000 N REF701 !

PHASE ANILITE  %  2  1.75 1   !
    CONSTITUENT ANILITE  :CU:S :  !
   PARAMETER G(ANILITE,CU:S;0) 298.15 +1.75*GHSERCU#+GHSERSS#-76000.8
   -22.78185*T;  6000 N REF701 ! 

PHASE DJURLEITE  %  2  1.93 1   !
    CONSTITUENT DJURLEITE  :CU:S :  !
   PARAMETER G(DJURLEITE,CU:S;0) 298.15 +1.93*GHSERCU#+GHSERSS#-79718.6
   -30.97899*T;  6000 N REF701 ! 

PHASE COVELLITE  %  2  1 1   !
    CONSTITUENT COVELLITE  :CU:S :  !
   PARAMETER G(COVELLITE,CU:S;0) 298.15 +1*GHSERCU#+GHSERSS#-52804.7
   -6.6291*T;  6000 N REF701 ! 

PHASE PYRRHOTITE  %  2  1 1   !
    CONSTITUENT PYRRHOTITE  :CU,VA:S :  !
   PARAMETER G(PYRRHOTITE,CU:S;0) 298.15 +1*GHSERCU#+GHSERSS#;
    6000 N REF701 ! 
   PARAMETER G(PYRRHOTITE,VA:S;0) 298.15 +GHSERSS# +258600;
    6000 N REF701 ! 

PHASE CU2SO4  %  3  2 1 4   !
    CONSTITUENT CU2SO4 :CU:S:O:  !
   PARAMETER G(CU2SO4,CU:S:O;0) 298.15 -784190+505.24*T-99.578*T*LN(T)
    -0.03473*T**2-34.024*T**(-1);      6000 N REF709 ! 


PHASE CUSO4  %  3  1 1 4   !
    CONSTITUENT CUSO4 :CU:S:O:  !
   PARAMETER G(CUSO4,CU:S:O;0) 298.15 -822670+782.15*T-128.91*T*LN(T)
    -0.01395*T**2+1.7467E6*T**(-1);      6000 N REF709 ! 

PHASE CuO_CUSO4  %  3  2 1 5   !
    CONSTITUENT CuO_CUSO4 :CU:S:O:  !
   PARAMETER G(CuO_CUSO4,CU:S:O;0) 298.15 -9.8953E5+1009*T-170.83*T*LN(T)
    -0.02268*T**2+1.9625E6*T**(-1);      6000 N REF709 ! 

$PHASE CuO  %  2  1 1   !
$    CONSTITUENT CuO :CU:O:  !
$   PARAMETER G(CuO,CU:O;0) 298.15 -1.7339E5+289.35*T-48.592*T*LN(T)
$    -3.72E-3*T**2+3.81E5*T**(-1);      6000 N REF709 ! 
PHASE Cu1O1  %  2  1 1   !
    CONSTITUENT Cu1O1 :CU:O:  !
   PARAMETER G(Cu1O1,CU:O;0) 298.15 -1.7339E5+289.35*T-48.592*T*LN(T)
    -3.72E-3*T**2+3.81E5*T**(-1);      6000 N REF709 ! 

PHASE CUH2O2  %  3  1 2 2   !
    CONSTITUENT CUH2O2 :CU:H:O:  !
   PARAMETER G(CUH2O2,CU:H:O;0) 298.15 -4.7336E5+557.73*T-97.753*T*LN(T)
    -0.01096*T**2+4.3137E5*T**(-1);      6000 N REF709 ! 

PHASE CU2P2O7  %  3  2 2 7   !
    CONSTITUENT CU2P2O7 :CU:P:O:  !
   PARAMETER G(CU2P2O7,CU:P:O;0) 298.15 -2.1658E+06+912.02*T-172.454*T*LN(T)
    -0.088375*T**2+1.547E+06*T**(-1);      6000 N REF709 ! 
			
PHASE CU3P2O8  %  3  3 2 8   !
    CONSTITUENT CU3P2O8 :CU:P:O:  !
   PARAMETER G(CU3P2O8,CU:P:O;0) 298.15 -2.34145E+06+1187.08*T-221.05*T*LN(T)
    -0.092095*T**2+1.928E+06*T**(-1);      6000 N REF709 ! 


PHASE P4S5  %  2  4 5   !
    CONSTITUENT P4S5  :P:S :  !
   PARAMETER G(P4S5,P:S;0) 298.15 -362169+955.611*T-175.017*T*LN(T)
     -0.06019*T**2;  6000 N REF709 !

PHASE P4S7  %  2  4 7   !
    CONSTITUENT P4S7  :P:S :  !
   PARAMETER G(P4S7,P:S;0) 298.15 -387038+1001.82*T-187.264*T*LN(T)
     -0.09196*T**2;  6000 N REF709 !

PHASE P2S5  %  2  2 5   !
    CONSTITUENT P2S5  :P:S :  !
   PARAMETER G(P2S5,P:S;0) 298.15 -223859+561.353*T-106.047*T*LN(T)
     -0.07008*T**2;  6000 N REF709 !

PHASE P4S3  %  2  4 3   !
    CONSTITUENT P4S3  :P:S :  !
   PARAMETER G(P4S3,P:S;0) 298.15 -250568+63.2481*T-18.2415*T*LN(T)
     -0.24186*T**2;  6000 N REF709 !

PHASE P4O10  %  2  4 10   !
    CONSTITUENT P4O10  :P:O :  !
   PARAMETER G(P4O10,P:O;0) 298.15 -3.0791E+06+893.7*T-150.54*T*LN(T)
     -0.16187*T**2+1.5735E6*T**(-1);  6000 N REF709 !


$ Cu-S-O-H
$ CUSO4_1H2O Poitevinite 
PHASE POITEVINITE  %  4 1 1 5 2 !
    CONSTITUENT POITEVINITE  :CU:S:O:H :  !
  PARAMETER G(POITEVINITE,CU:S:O:H;0) 298.15 -1.13433E+06+762.49*T-130.792*T*LN(T)
     -0.03544*T**2+930940*T**(-1);  6000 N REF709 !

$ CUSO4_3H2O Bonattite
PHASE BONATTITE  %  4 1 1 7 6 !
    CONSTITUENT BONATTITE  :CU:S:O:H :  !
   PARAMETER G(BONATTITE,CU:S:O:H;0) 298.15 -1.75399E+06+1177.94*T-204.305*T*LN(T)
     -0.0359*T**2+920480*T**(-1);  6000 N REF709 !

$ CUSO4_5H2O  
PHASE CHALCANTHITE  %  4 1 1 9 10 !
    CONSTITUENT CHALCANTHITE  :CU:S:O:H :  !
  PARAMETER G(CHALCANTHITE,CU:S:O:H;0) 298.15 -2.37197E+06+1612.1*T-280.96*T*LN(T)
     -0.03544*T**2+928848*T**(-1);  6000 N REF709 !
	
$ CuSO4*3Cu(OH)2*H2O , wrong name in first database
PHASE POSNJAKITE  %  4 4 1 11 8 !
    CONSTITUENT POSNJAKITE  :CU:S:O:H :  !
   PARAMETER G(POSNJAKITE,CU:S:O:H;0) 298.15 -2.6323E+06+2570.9*T-424.05*T*LN(T)
     -0.06831*T**2+2.2239E+06*T**(-1);  6000 N REF709 !

$ CuSO4*2Cu(OH)2  Antlerite	
PHASE ANTLERITE  %  4 3 1 8 4 !
    CONSTITUENT ANTLERITE  :CU:S:O:H :  !
   PARAMETER G(ANTLERITE,CU:S:O:H;0) 298.15 -1.846E+06+1957.2*T-324.42*T*LN(T)
     -0.035863*T**2+2.612E+06*T**(-1);  6000 N REF709 !

$ CuSO4*3Cu(OH)2  Brochantite	
PHASE BROCHANTITE  %  4 4 1 10 6 !
    CONSTITUENT BROCHANTITE  :CU:S:O:H :  !
   PARAMETER G(BROCHANTITE,CU:S:O:H;0) 298.15 -2.3384E+06+2550*T-422.17*T*LN(T)
     -0.046821*T**2+3.043E+06*T**(-1);  6000 N REF709 !

$ Cu-P-O-H		
$ Libethenite	Cu2PO4(OH)
PHASE LIBETHENITE  %  4 2 1 5 1 !
    CONSTITUENT LIBETHENITE  :CU:P:O:H :  !
   PARAMETER G(LIBETHENITE,CU:P:O:H;0) 298.15 -1.4217E+06+872.41*T-159.4*T*LN(T)
     -0.051526*T**2+1.1805E+06*T**(-1);  6000 N REF709 !

$ Cornetite	Cu3PO4(OH)3
PHASE CORNETITE  %  4 3 1 7 3 !
    CONSTITUENT CORNETITE  :CU:P:O:H :  !
   PARAMETER G(CORNETITE,CU:P:O:H;0) 298.15 -1.9044E+06+1430.1*T-257.15*T*LN(T)
     -0.062484*T**2+1.6115E+06*T**(-1);  6000 N REF709 !
		
$ Pseudomalachite	Cu5(PO4)2(OH)4 
PHASE P_MALACHITE  %  4 5 2 12 4 !
    CONSTITUENT P_MALACHITE  :CU:P:O:H :  !
   PARAMETER G(P_MALACHITE,CU:P:O:H;0) 298.15 -3.3367E+06+2302.6*T-416.56*T*LN(T)
     -0.11401*T**2+2.792E+06*T**(-1);  6000 N REF709 !										
					
$ Cu3(PO4)2*2H2O 
PHASE CUPO_2H2O  %  4 3 2 10 4 !
    CONSTITUENT CUPO_2H2O  :CU:P:O:H :  !
   PARAMETER G(CUPO_2H2O,CU:P:O:H;0) 298.15 -2.9767E+06+1508.3*T-277.86*T*LN(T)
     -0.10457*T**2+1.8017E+06*T**(-1);  6000 N REF709 !

$ Cu3(PO4)2*3H2O 
PHASE CUPO_3H2O  %  4 3 2 11 6 !
    CONSTITUENT CUPO_3H2O  :CU:P:O:H :  !
   PARAMETER G(CUPO_3H2O,CU:P:O:H;0) 298.15 -3.2372E+06+1632.9*T-306.27*T*LN(T)
     -0.11081*T**2+1.7375E+06*T**(-1);  6000 N REF709 !
					
$ Water 
PHASE WATER  %  2 2 1 !
    CONSTITUENT WATER  :H:O :  !
   PARAMETER G(WATER,H:O;0) 298.15 -429699+3315.01*T-561.063*T*LN(T)
     +0.85897*T**2+5.64359e+006*T**(-1)-0.000284616*T**3
     +1E-42*T**15;  428.02 Y
   -357088+1733.19*T-287.921*T*LN(T)+0.241782*T**2; 647 N  REF709 !

	
$ Cu3(P2O6OH)2 
PHASE CU3_2P2O6OH  %  4 3 4 14 2 !
    CONSTITUENT CU3_2P2O6OH  :CU:P:O:H :  !
   PARAMETER G(CU3_2P2O6OH,CU:P:O:H;0) 298.15 -4.43322E+06+1756.2*T-324.73*T*LN(T)
     -0.17927*T**2+2.64884E+06*T**(-1);  6000 N REF709 !
						      


 LIST_OF_REFERENCES
 NUMBER  SOURCE
   REF283  'Alan Dinsdale, SGTE Data for Pure Elements, 
          Calphad Vol 15(1991) p 317-425, 
          also in NPL Report DMA(A)195 Rev. August 1990'
   REF1   'PURE4 - SGTE Pure Elements (Unary) Database (Version 4.5), 
         developed by SGTE (Scientific Group Thermodata Europe), 1991-2006, 
         and provided by TCSAB (Sept. 2006). '
   REF701  'Cu-S Lee et al. ISIJ Int. 47 (2007) 163-171'
   REF703  'Cu-O Hallstedt et al, J. Phase Equilib., 1994 (15) 483-499'
   REF704  'Cu-O Clavaguera-Mora J. Alloys and compounds, 2004 (377) 8-16'
   REF705  'Cu-Pd-H Huang et al. CALPHAD, 31 (2007) 315-329'
   REF706  'Cu-O Hallstedt et al, Calphad, 2003 (27) 177-191'
   REF707  'Cu-P Noda et al., CALPHAD, 33 (2009) 557-560'
   REF709  'Cu-H-O-S-P Magnusson et al. SKB KIMAB 2012'

  ! 
 
